NAME : XML50_1111_01
COMMENT : Generated from XML100_1111_01
TYPE : CVRP
DIMENSION : 51
EDGE_WEIGHT_TYPE : EUC_2D
CAPACITY : 2
NODE_COORD_SECTION
1 764 255
2 303 588
3 445 722
4 993 860
5 34 242
6 900 18
7 290 21
8 395 576
9 505 589
10 838 557
11 756 249
12 29 221
13 613 458
14 43 704
15 673 83
16 798 517
17 218 460
18 233 231
19 28 229
20 306 859
21 514 953
22 490 29
23 310 940
24 173 549
25 393 170
26 378 347
27 861 232
28 228 946
29 868 974
30 433 194
31 121 333
32 510 209
33 722 711
34 940 381
35 703 675
36 421 188
37 704 509
38 797 817
39 269 548
40 223 649
41 344 69
42 23 386
43 220 976
44 744 416
45 958 5
46 205 674
47 809 519
48 521 393
49 763 2
50 968 876
51 836 433
DEMAND_SECTION
1 0
2 1
3 1
4 1
5 1
6 1
7 1
8 1
9 1
10 1
11 1
12 1
13 1
14 1
15 1
16 1
17 1
18 1
19 1
20 1
21 1
22 1
23 1
24 1
25 1
26 1
27 1
28 1
29 1
30 1
31 1
32 1
33 1
34 1
35 1
36 1
37 1
38 1
39 1
40 1
41 1
42 1
43 1
44 1
45 1
46 1
47 1
48 1
49 1
50 1
51 1
DEPOT_SECTION
1
-1
EOF
